; benchmark generated from python API
(set-info :status unknown)
(declare-datatypes ((RealState 0)) (((RMk1 (rval1 Real)) (RMk2 (rval2 Real)))))
 (declare-fun ep () Real)
(declare-fun V () Real)
(declare-fun v2uscore1dollarskuscore91 () Real)
(declare-fun v1uscore1dollarskuscore91 () Real)
(declare-fun t94uscore0 () Real)
(declare-fun x1uscore1dollarskuscore74 () Real)
(declare-fun xI1 () Real)
(declare-fun x2uscore1dollarskuscore71 () Real)
(declare-fun xI2 () Real)
(declare-fun A () Real)
(declare-fun v2 () Real)
(declare-fun v1 () Real)
(declare-fun B () Real)
(declare-fun x2 () Real)
(declare-fun I2 () Real)
(declare-fun x1 () Real)
(declare-fun I1 () Real)
(declare-fun I1uscore1dollarskuscore91 () Real)
(declare-fun I2uscore1dollarskuscore91 () Real)
(assert
 (let (($x197 (exists ((ts94uscore0_st RealState) (val!24 Real) )(let (($x195 (or (= 2.0 2.0) (= 0.0 2.0))))
 (let (($x182 (and (>= v1uscore1dollarskuscore91 0.0) (<= v1uscore1dollarskuscore91 V))))
 (let (($x23 (and (and $x182 (>= v2uscore1dollarskuscore91 0.0)) (<= v2uscore1dollarskuscore91 V))))
 (let (($x186 (=> (and (<= 0.0 (rval2 ts94uscore0_st)) (<= (rval2 ts94uscore0_st) t94uscore0)) (and $x23 (<= (+ (rval2 ts94uscore0_st) 0.0) ep)))))
 (let (($x153 (>= t94uscore0 0.0)))
 (let (($x143 (or (= xI2 x2uscore1dollarskuscore71) (= xI1 x1uscore1dollarskuscore74))))
 (let (($x16 (and (= v2uscore1dollarskuscore91 0.0) (= v1uscore1dollarskuscore91 0.0))))
 (let (($x240 (and (and $x16 (= I2uscore1dollarskuscore91 2.0)) (= I1uscore1dollarskuscore91 1.0))))
 (let (($x120 (and (and $x240 (< xI1 x1uscore1dollarskuscore74)) (= I1uscore1dollarskuscore91 2.0))))
 (let (($x137 (and (and (and $x120 (= I1 2.0)) (< xI1 x1)) (= I2 2.0))))
 (let (($x142 (and (and (and $x137 (< xI2 x2)) (> B 0.0)) (>= v1 0.0))))
 (let (($x93 (and (and (and (and $x142 (<= v1 V)) (>= v2 0.0)) (<= v2 V)) (>= A 0.0))))
 (let (($x165 (and (and $x93 (> V 0.0)) (> ep 0.0))))
 (let (($x94 (not (= ts94uscore0_st (RMk1 val!24)))))
 (and $x94 (=> $x165 (or $x143 (=> (and $x153 $x186) $x195)))))))))))))))))))
 ))
 (not $x197)))
(check-sat)
